N = 80;
F = 7;
MaxItemsPerDay = 7;
MaxDay = 30;
name = ["i1", "i2", "i3", "i4", "i5", "i6", "i7", "i8", "i9", "i10", "i11", "i12", "i13", "i14", "i15", "i16", "i17", "i18", "i19", "i20", "i21", "i22", "i23", "i24", "i25", "i26", "i27", "i28", "i29", "i30", "i31", "i32", "i33", "i34", "i35", "i36", "i37", "i38", "i39", "i40", "i41", "i42", "i43", "i44", "i45", "i46", "i47", "i48", "i49", "i50", "i51", "i52", "i53", "i54", "i55", "i56", "i57", "i58", "i59", "i60", "i61", "i62", "i63", "i64", "i65", "i66", "i67", "i68", "i69", "i70", "i71", "i72", "i73", "i74", "i75", "i76", "i77", "i78", "i79", "i80"];
kind = [3, 5, 7, 3, 1, 3, 3, 7, 2, 5, 2, 3, 3, 3, 4, 7, 5, 7, 2, 4, 4, 5, 3, 1, 1, 1, 4, 4, 4, 3, 3, 6, 4, 6, 1, 3, 4, 7, 2, 6, 7, 5, 1, 7, 3, 1, 3, 2, 7, 2, 4, 5, 6, 7, 6, 3, 1, 7, 1, 6, 6, 6, 3, 3, 1, 1, 2, 6, 5, 2, 3, 3, 6, 4, 7, 1, 7, 1, 6, 1];
facility = [
  { 3, 7 },
  { 2, 3, 4, 5, 7 },
  { 2, 3, 4, 6, 7 },
  { 3, 4, 5, 6, 7 },
  { 1, 4 },
  { 3, 4, 6 },
  { 2, 3 },
  { 5, 7 },
  { 1, 2, 4, 7 },
  { 2, 3, 5, 6 },
  { 2, 7 },
  { 1, 3, 5, 6, 7 },
  { 2, 3, 4, 5, 6 },
  { 3, 4, 5, 6 },
  { 1, 2, 3, 4, 5, 6 },
  { 1, 2, 5, 6, 7 },
  { 5 },
  { 1, 3, 5, 6, 7 },
  { 2, 4, 6, 7 },
  { 4, 5 },
  { 4, 6 },
  { 1, 4, 5, 6 },
  { 3, 6 },
  { 1, 2 },
  { 1, 2, 5, 6, 7 },
  { 1, 2, 3, 4, 7 },
  { 1, 2, 4, 5, 6 },
  { 3, 4, 6 },
  { 2, 3, 4, 7 },
  { 1, 3, 4, 5, 6, 7 },
  { 2, 3, 4, 6 },
  { 1, 6, 7 },
  { 1, 4 },
  { 3, 5, 6 },
  { 1, 4, 5 },
  { 1, 3, 5 },
  { 1, 4, 5, 7 },
  { 5, 6, 7 },
  { 2, 3, 6, 7 },
  { 1, 2, 6 },
  { 2, 3, 4, 5, 7 },
  { 5, 7 },
  { 1, 3, 4, 6 },
  { 4, 6, 7 },
  { 1, 2, 3, 5, 6 },
  { 1, 2, 3, 4, 5, 6 },
  { 1, 2, 3, 5, 6 },
  { 1, 2 },
  { 4, 7 },
  { 1, 2, 6 },
  { 3, 4 },
  { 4, 5 },
  { 4, 6 },
  { 1, 7 },
  { 1, 3, 6, 7 },
  { 1, 2, 3, 5, 6 },
  { 1, 3, 5, 7 },
  { 1, 2, 3, 7 },
  { 1 },
  { 3, 4, 6 },
  { 1, 6 },
  { 2, 4, 6, 7 },
  { 2, 3, 5, 6 },
  { 2, 3, 5 },
  { 1, 4, 5, 6, 7 },
  { 1, 3, 4, 6, 7 },
  { 2, 4, 5, 6, 7 },
  { 1, 3, 6 },
  { 5 },
  { 2, 4, 7 },
  { 2, 3 },
  { 1, 3, 4, 5, 7 },
  { 4, 5, 6 },
  { 1, 3, 4, 5, 6, 7 },
  { 4, 7 },
  { 1, 3, 4, 5, 6 },
  { 5, 7 },
  { 1, 3, 4, 6 },
  { 3, 4, 6 },
  { 1, 7 }
];
producedDay = [3, 15, 15, 15, 15, 15, 15, 15, 15, 2, 15, 15, 15, 15, 15, 15, 10, 15, 10, 15, 15, 15, 1, 15, 15, 15, 2, 15, 15, 15, 15, 10, 15, 15, 15, 3, 15, 15, 15, 15, 15, 15, 15, 15, 15, 15, 15, 15, 7, 15, 15, 15, 15, 15, 15, 15, 15, 10, 15, 15, 15, 15, 15, 15, 15, 15, 15, 15, 15, 15, 15, 15, 4, 15, 15, 11, 15, 15, 15, 15];
deadLineDay = [21, 29, 20, 17, 28, 26, 16, 30, 16, 17, 20, 25, 30, 16, 30, 30, 30, 30, 25, 30, 30, 24, 22, 30, 30, 28, 16, 24, 25, 29, 30, 30, 18, 30, 30, 6, 28, 23, 30, 30, 19, 23, 30, 30, 17, 16, 30, 25, 30, 30, 30, 25, 30, 30, 28, 30, 30, 30, 16, 30, 30, 28, 20, 26, 20, 26, 30, 20, 30, 30, 30, 30, 22, 26, 30, 14, 30, 26, 26, 25];
